9
0 16 29 41 38 67 18 82 54
16 0 40 50 6 63 36 44 22
29 40 0 33 58 20 35 9 93
41 50 33 0 43 57 59 42 45
38 6 58 43 0 44 52 64 63
67 63 20 57 44 0 91 40 65
18 36 35 59 52 91 0 61 53
82 44 9 42 64 40 61 0 53
54 22 93 45 63 65 53 53 0
